p cnf 1006 2368
1 0
-2 0
-3 0
-4 0
-5 0
-6 0
-7 0
-8 0
-9 0
-10 0
-11 0
-12 0
-13 0
-14 0
-15 0
-16 0
-17 0
-18 0
-19 0
-20 0
-21 0
-22 0
-23 0
-24 0
-25 0
-26 0
1 -27 0
27 -1 0
28 29 0
30 29 0
-28 -30 -29 0
-2 29 -31 0
2 -29 -31 0
31 -29 -2 0
2 29 31 0
-31 0
32 33 0
34 33 0
-32 -34 -33 0
-30 33 -35 0
30 -33 -35 0
35 -33 -30 0
30 33 35 0
-35 0
36 37 0
38 37 0
-36 -38 -37 0
-34 37 -39 0
34 -37 -39 0
39 -37 -34 0
34 37 39 0
-39 0
40 41 0
42 41 0
-40 -42 -41 0
-38 41 -43 0
38 -41 -43 0
43 -41 -38 0
38 41 43 0
-43 0
44 45 0
46 45 0
-44 -46 -45 0
-42 45 -47 0
42 -45 -47 0
47 -45 -42 0
42 45 47 0
-47 0
48 49 0
50 49 0
-48 -50 -49 0
-46 49 -51 0
46 -49 -51 0
51 -49 -46 0
46 49 51 0
-51 0
36 52 0
40 52 0
44 52 0
48 52 0
53 52 0
-54 0
-50 52 -55 0
50 -52 -55 0
55 -52 -50 0
50 52 55 0
-55 0
56 57 0
58 57 0
-56 -58 -57 0
-3 57 -59 0
3 -57 -59 0
59 -57 -3 0
3 57 59 0
-59 0
60 61 0
62 61 0
-60 -62 -61 0
-58 61 -63 0
58 -61 -63 0
63 -61 -58 0
58 61 63 0
-63 0
64 65 0
66 65 0
-64 -66 -65 0
-62 65 -67 0
62 -65 -67 0
67 -65 -62 0
62 65 67 0
-67 0
68 69 0
70 69 0
-68 -70 -69 0
-66 69 -71 0
66 -69 -71 0
71 -69 -66 0
66 69 71 0
-71 0
72 73 0
74 73 0
-72 -74 -73 0
-70 73 -75 0
70 -73 -75 0
75 -73 -70 0
70 73 75 0
-75 0
76 77 0
78 77 0
-76 -78 -77 0
-74 77 -79 0
74 -77 -79 0
79 -77 -74 0
74 77 79 0
-79 0
80 81 0
82 81 0
-80 -82 -81 0
-78 81 -83 0
78 -81 -83 0
83 -81 -78 0
78 81 83 0
-83 0
84 85 0
86 85 0
-84 -86 -85 0
-82 85 -87 0
82 -85 -87 0
87 -85 -82 0
82 85 87 0
-87 0
88 89 0
90 89 0
-88 -90 -89 0
-86 89 -91 0
86 -89 -91 0
91 -89 -86 0
86 89 91 0
-91 0
92 93 0
94 93 0
-92 -94 -93 0
-90 93 -95 0
90 -93 -95 0
95 -93 -90 0
90 93 95 0
-95 0
96 97 0
98 97 0
-96 -98 -97 0
-94 97 -99 0
94 -97 -99 0
99 -97 -94 0
94 97 99 0
-99 0
80 100 0
84 100 0
88 100 0
92 100 0
96 100 0
101 100 0
-102 0
-98 100 -103 0
98 -100 -103 0
103 -100 -98 0
98 100 103 0
-103 0
104 105 0
106 105 0
-104 -106 -105 0
-4 105 -107 0
4 -105 -107 0
107 -105 -4 0
4 105 107 0
-107 0
108 109 0
110 109 0
-108 -110 -109 0
-106 109 -111 0
106 -109 -111 0
111 -109 -106 0
106 109 111 0
-111 0
112 113 0
114 113 0
-112 -114 -113 0
-110 113 -115 0
110 -113 -115 0
115 -113 -110 0
110 113 115 0
-115 0
116 117 0
118 117 0
-116 -118 -117 0
-114 117 -119 0
114 -117 -119 0
119 -117 -114 0
114 117 119 0
-119 0
120 121 0
122 121 0
-120 -122 -121 0
-118 121 -123 0
118 -121 -123 0
123 -121 -118 0
118 121 123 0
-123 0
124 125 0
126 125 0
-124 -126 -125 0
-122 125 -127 0
122 -125 -127 0
127 -125 -122 0
122 125 127 0
-127 0
128 129 0
130 129 0
-128 -130 -129 0
-126 129 -131 0
126 -129 -131 0
131 -129 -126 0
126 129 131 0
-131 0
132 133 0
134 133 0
-132 -134 -133 0
-130 133 -135 0
130 -133 -135 0
135 -133 -130 0
130 133 135 0
-135 0
5 136 0
137 136 0
-5 -137 -136 0
-134 136 -138 0
134 -136 -138 0
138 -136 -134 0
134 136 138 0
-138 0
139 140 0
141 140 0
-139 -141 -140 0
-5 140 -142 0
5 -140 -142 0
142 -140 -5 0
5 140 142 0
-142 0
128 143 0
132 143 0
137 143 0
139 143 0
144 143 0
-145 0
-141 143 -146 0
141 -143 -146 0
146 -143 -141 0
141 143 146 0
-146 0
2 147 0
148 147 0
-2 -148 -147 0
-6 147 -149 0
6 -147 -149 0
149 -147 -6 0
6 147 149 0
-149 0
150 151 0
152 151 0
-150 -152 -151 0
-7 151 -153 0
7 -151 -153 0
153 -151 -7 0
7 151 153 0
-153 0
154 155 0
156 155 0
-154 -156 -155 0
-152 155 -157 0
152 -155 -157 0
157 -155 -152 0
152 155 157 0
-157 0
158 159 0
160 159 0
-158 -160 -159 0
-156 159 -161 0
156 -159 -161 0
161 -159 -156 0
156 159 161 0
-161 0
46 162 0
163 162 0
-46 -163 -162 0
-160 162 -164 0
160 -162 -164 0
164 -162 -160 0
160 162 164 0
-164 0
165 166 0
167 166 0
-165 -167 -166 0
-8 166 -168 0
8 -166 -168 0
168 -166 -8 0
8 166 168 0
-168 0
169 170 0
171 170 0
-169 -171 -170 0
-167 170 -172 0
167 -170 -172 0
172 -170 -167 0
167 170 172 0
-172 0
173 174 0
175 174 0
-173 -175 -174 0
-171 174 -176 0
171 -174 -176 0
176 -174 -171 0
171 174 176 0
-176 0
177 178 0
179 178 0
-177 -179 -178 0
-175 178 -180 0
175 -178 -180 0
180 -178 -175 0
175 178 180 0
-180 0
181 182 0
183 182 0
-181 -183 -182 0
-179 182 -184 0
179 -182 -184 0
184 -182 -179 0
179 182 184 0
-184 0
169 185 0
173 185 0
177 185 0
181 185 0
186 185 0
-187 0
-183 185 -188 0
183 -185 -188 0
188 -185 -183 0
183 185 188 0
-188 0
189 190 0
191 190 0
-189 -191 -190 0
-9 190 -192 0
9 -190 -192 0
192 -190 -9 0
9 190 192 0
-192 0
193 194 0
195 194 0
-193 -195 -194 0
-191 194 -196 0
191 -194 -196 0
196 -194 -191 0
191 194 196 0
-196 0
197 198 0
199 198 0
-197 -199 -198 0
-195 198 -200 0
195 -198 -200 0
200 -198 -195 0
195 198 200 0
-200 0
201 202 0
203 202 0
-201 -203 -202 0
-199 202 -204 0
199 -202 -204 0
204 -202 -199 0
199 202 204 0
-204 0
205 206 0
207 206 0
-205 -207 -206 0
-203 206 -208 0
203 -206 -208 0
208 -206 -203 0
203 206 208 0
-208 0
209 210 0
211 210 0
-209 -211 -210 0
-207 210 -212 0
207 -210 -212 0
212 -210 -207 0
207 210 212 0
-212 0
201 213 0
205 213 0
209 213 0
214 213 0
-215 0
-211 213 -216 0
211 -213 -216 0
216 -213 -211 0
211 213 216 0
-216 0
217 218 0
219 218 0
-217 -219 -218 0
-10 218 -220 0
10 -218 -220 0
220 -218 -10 0
10 218 220 0
-220 0
221 222 0
223 222 0
-221 -223 -222 0
-219 222 -224 0
219 -222 -224 0
224 -222 -219 0
219 222 224 0
-224 0
203 225 0
226 225 0
-203 -226 -225 0
-223 225 -227 0
223 -225 -227 0
227 -225 -223 0
223 225 227 0
-227 0
228 229 0
230 229 0
-228 -230 -229 0
-11 229 -231 0
11 -229 -231 0
231 -229 -11 0
11 229 231 0
-231 0
232 233 0
234 233 0
-232 -234 -233 0
-230 233 -235 0
230 -233 -235 0
235 -233 -230 0
230 233 235 0
-235 0
236 237 0
238 237 0
-236 -238 -237 0
-234 237 -239 0
234 -237 -239 0
239 -237 -234 0
234 237 239 0
-239 0
240 241 0
242 241 0
-240 -242 -241 0
-238 241 -243 0
238 -241 -243 0
243 -241 -238 0
238 241 243 0
-243 0
207 244 0
245 244 0
-207 -245 -244 0
-242 244 -246 0
242 -244 -246 0
246 -244 -242 0
242 244 246 0
-246 0
247 248 0
249 248 0
-247 -249 -248 0
-12 248 -250 0
12 -248 -250 0
250 -248 -12 0
12 248 250 0
-250 0
251 252 0
253 252 0
-251 -253 -252 0
-249 252 -254 0
249 -252 -254 0
254 -252 -249 0
249 252 254 0
-254 0
255 256 0
257 256 0
-255 -257 -256 0
-253 256 -258 0
253 -256 -258 0
258 -256 -253 0
253 256 258 0
-258 0
259 260 0
261 260 0
-259 -261 -260 0
-257 260 -262 0
257 -260 -262 0
262 -260 -257 0
257 260 262 0
-262 0
263 264 0
265 264 0
-263 -265 -264 0
-261 264 -266 0
261 -264 -266 0
266 -264 -261 0
261 264 266 0
-266 0
267 268 0
269 268 0
-267 -269 -268 0
-265 268 -270 0
265 -268 -270 0
270 -268 -265 0
265 268 270 0
-270 0
271 272 0
273 272 0
-271 -273 -272 0
-269 272 -274 0
269 -272 -274 0
274 -272 -269 0
269 272 274 0
-274 0
275 276 0
277 276 0
-275 -277 -276 0
-273 276 -278 0
273 -276 -278 0
278 -276 -273 0
273 276 278 0
-278 0
279 280 0
281 280 0
-279 -281 -280 0
-277 280 -282 0
277 -280 -282 0
282 -280 -277 0
277 280 282 0
-282 0
283 284 0
285 284 0
-283 -285 -284 0
-281 284 -286 0
281 -284 -286 0
286 -284 -281 0
281 284 286 0
-286 0
267 287 0
271 287 0
275 287 0
279 287 0
283 287 0
288 287 0
-289 0
-285 287 -290 0
285 -287 -290 0
290 -287 -285 0
285 287 290 0
-290 0
291 292 0
293 292 0
-291 -293 -292 0
-13 292 -294 0
13 -292 -294 0
294 -292 -13 0
13 292 294 0
-294 0
295 296 0
297 296 0
-295 -297 -296 0
-293 296 -298 0
293 -296 -298 0
298 -296 -293 0
293 296 298 0
-298 0
299 300 0
301 300 0
-299 -301 -300 0
-297 300 -302 0
297 -300 -302 0
302 -300 -297 0
297 300 302 0
-302 0
303 304 0
305 304 0
-303 -305 -304 0
-301 304 -306 0
301 -304 -306 0
306 -304 -301 0
301 304 306 0
-306 0
307 308 0
309 308 0
-307 -309 -308 0
-305 308 -310 0
305 -308 -310 0
310 -308 -305 0
305 308 310 0
-310 0
311 312 0
313 312 0
-311 -313 -312 0
-309 312 -314 0
309 -312 -314 0
314 -312 -309 0
309 312 314 0
-314 0
315 316 0
317 316 0
-315 -317 -316 0
-313 316 -318 0
313 -316 -318 0
318 -316 -313 0
313 316 318 0
-318 0
319 320 0
321 320 0
-319 -321 -320 0
-317 320 -322 0
317 -320 -322 0
322 -320 -317 0
317 320 322 0
-322 0
323 324 0
325 324 0
-323 -325 -324 0
-321 324 -326 0
321 -324 -326 0
326 -324 -321 0
321 324 326 0
-326 0
327 328 0
329 328 0
-327 -329 -328 0
-325 328 -330 0
325 -328 -330 0
330 -328 -325 0
325 328 330 0
-330 0
331 332 0
333 332 0
-331 -333 -332 0
-329 332 -334 0
329 -332 -334 0
334 -332 -329 0
329 332 334 0
-334 0
315 335 0
319 335 0
323 335 0
327 335 0
331 335 0
336 335 0
-337 0
-333 335 -338 0
333 -335 -338 0
338 -335 -333 0
333 335 338 0
-338 0
339 340 0
341 340 0
-339 -341 -340 0
-14 340 -342 0
14 -340 -342 0
342 -340 -14 0
14 340 342 0
-342 0
343 344 0
345 344 0
-343 -345 -344 0
-341 344 -346 0
341 -344 -346 0
346 -344 -341 0
341 344 346 0
-346 0
347 348 0
349 348 0
-347 -349 -348 0
-345 348 -350 0
345 -348 -350 0
350 -348 -345 0
345 348 350 0
-350 0
351 352 0
353 352 0
-351 -353 -352 0
-349 352 -354 0
349 -352 -354 0
354 -352 -349 0
349 352 354 0
-354 0
355 356 0
357 356 0
-355 -357 -356 0
-353 356 -358 0
353 -356 -358 0
358 -356 -353 0
353 356 358 0
-358 0
359 360 0
361 360 0
-359 -361 -360 0
-357 360 -362 0
357 -360 -362 0
362 -360 -357 0
357 360 362 0
-362 0
363 364 0
365 364 0
-363 -365 -364 0
-361 364 -366 0
361 -364 -366 0
366 -364 -361 0
361 364 366 0
-366 0
367 368 0
369 368 0
-367 -369 -368 0
-365 368 -370 0
365 -368 -370 0
370 -368 -365 0
365 368 370 0
-370 0
371 372 0
373 372 0
-371 -373 -372 0
-369 372 -374 0
369 -372 -374 0
374 -372 -369 0
369 372 374 0
-374 0
15 375 0
376 375 0
-15 -376 -375 0
-373 375 -377 0
373 -375 -377 0
377 -375 -373 0
373 375 377 0
-377 0
15 -378 0
378 -15 0
379 380 0
381 380 0
-379 -381 -380 0
-16 380 -382 0
16 -380 -382 0
382 -380 -16 0
16 380 382 0
-382 0
383 384 0
385 384 0
-383 -385 -384 0
-381 384 -386 0
381 -384 -386 0
386 -384 -381 0
381 384 386 0
-386 0
387 388 0
389 388 0
-387 -389 -388 0
-385 388 -390 0
385 -388 -390 0
390 -388 -385 0
385 388 390 0
-390 0
391 392 0
393 392 0
-391 -393 -392 0
-389 392 -394 0
389 -392 -394 0
394 -392 -389 0
389 392 394 0
-394 0
395 396 0
397 396 0
-395 -397 -396 0
-393 396 -398 0
393 -396 -398 0
398 -396 -393 0
393 396 398 0
-398 0
399 400 0
401 400 0
-399 -401 -400 0
-397 400 -402 0
397 -400 -402 0
402 -400 -397 0
397 400 402 0
-402 0
403 404 0
405 404 0
-403 -405 -404 0
-401 404 -406 0
401 -404 -406 0
406 -404 -401 0
401 404 406 0
-406 0
407 408 0
409 408 0
-407 -409 -408 0
-405 408 -410 0
405 -408 -410 0
410 -408 -405 0
405 408 410 0
-410 0
411 412 0
413 412 0
-411 -413 -412 0
-409 412 -414 0
409 -412 -414 0
414 -412 -409 0
409 412 414 0
-414 0
415 416 0
417 416 0
-415 -417 -416 0
-413 416 -418 0
413 -416 -418 0
418 -416 -413 0
413 416 418 0
-418 0
399 419 0
403 419 0
407 419 0
411 419 0
415 419 0
420 419 0
-421 0
-417 419 -422 0
417 -419 -422 0
422 -419 -417 0
417 419 422 0
-422 0
423 424 0
425 424 0
-423 -425 -424 0
-17 424 -426 0
17 -424 -426 0
426 -424 -17 0
17 424 426 0
-426 0
427 428 0
429 428 0
-427 -429 -428 0
-425 428 -430 0
425 -428 -430 0
430 -428 -425 0
425 428 430 0
-430 0
431 432 0
433 432 0
-431 -433 -432 0
-429 432 -434 0
429 -432 -434 0
434 -432 -429 0
429 432 434 0
-434 0
435 436 0
437 436 0
-435 -437 -436 0
-433 436 -438 0
433 -436 -438 0
438 -436 -433 0
433 436 438 0
-438 0
439 440 0
441 440 0
-439 -441 -440 0
-437 440 -442 0
437 -440 -442 0
442 -440 -437 0
437 440 442 0
-442 0
443 444 0
445 444 0
-443 -445 -444 0
-441 444 -446 0
441 -444 -446 0
446 -444 -441 0
441 444 446 0
-446 0
447 448 0
449 448 0
-447 -449 -448 0
-445 448 -450 0
445 -448 -450 0
450 -448 -445 0
445 448 450 0
-450 0
451 452 0
453 452 0
-451 -453 -452 0
-449 452 -454 0
449 -452 -454 0
454 -452 -449 0
449 452 454 0
-454 0
455 456 0
457 456 0
-455 -457 -456 0
-453 456 -458 0
453 -456 -458 0
458 -456 -453 0
453 456 458 0
-458 0
443 459 0
447 459 0
451 459 0
455 459 0
460 459 0
-461 0
-457 459 -462 0
457 -459 -462 0
462 -459 -457 0
457 459 462 0
-462 0
463 464 0
465 464 0
-463 -465 -464 0
-18 464 -466 0
18 -464 -466 0
466 -464 -18 0
18 464 466 0
-466 0
467 468 0
469 468 0
-467 -469 -468 0
-465 468 -470 0
465 -468 -470 0
470 -468 -465 0
465 468 470 0
-470 0
471 472 0
473 472 0
-471 -473 -472 0
-469 472 -474 0
469 -472 -474 0
474 -472 -469 0
469 472 474 0
-474 0
475 476 0
477 476 0
-475 -477 -476 0
-473 476 -478 0
473 -476 -478 0
478 -476 -473 0
473 476 478 0
-478 0
479 480 0
481 480 0
-479 -481 -480 0
-477 480 -482 0
477 -480 -482 0
482 -480 -477 0
477 480 482 0
-482 0
483 484 0
485 484 0
-483 -485 -484 0
-481 484 -486 0
481 -484 -486 0
486 -484 -481 0
481 484 486 0
-486 0
487 488 0
489 488 0
-487 -489 -488 0
-485 488 -490 0
485 -488 -490 0
490 -488 -485 0
485 488 490 0
-490 0
491 492 0
493 492 0
-491 -493 -492 0
-489 492 -494 0
489 -492 -494 0
494 -492 -489 0
489 492 494 0
-494 0
483 495 0
487 495 0
491 495 0
496 495 0
-497 0
-493 495 -498 0
493 -495 -498 0
498 -495 -493 0
493 495 498 0
-498 0
499 500 0
501 500 0
-499 -501 -500 0
-19 500 -502 0
19 -500 -502 0
502 -500 -19 0
19 500 502 0
-502 0
503 504 0
505 504 0
-503 -505 -504 0
-501 504 -506 0
501 -504 -506 0
506 -504 -501 0
501 504 506 0
-506 0
507 508 0
509 508 0
-507 -509 -508 0
-505 508 -510 0
505 -508 -510 0
510 -508 -505 0
505 508 510 0
-510 0
511 512 0
513 512 0
-511 -513 -512 0
-509 512 -514 0
509 -512 -514 0
514 -512 -509 0
509 512 514 0
-514 0
485 515 0
516 515 0
-485 -516 -515 0
-513 515 -517 0
513 -515 -517 0
517 -515 -513 0
513 515 517 0
-517 0
518 519 0
520 519 0
-518 -520 -519 0
-20 519 -521 0
20 -519 -521 0
521 -519 -20 0
20 519 521 0
-521 0
522 523 0
524 523 0
-522 -524 -523 0
-520 523 -525 0
520 -523 -525 0
525 -523 -520 0
520 523 525 0
-525 0
526 527 0
528 527 0
-526 -528 -527 0
-524 527 -529 0
524 -527 -529 0
529 -527 -524 0
524 527 529 0
-529 0
409 530 0
531 530 0
-409 -531 -530 0
-528 530 -532 0
528 -530 -532 0
532 -530 -528 0
528 530 532 0
-532 0
533 534 0
535 534 0
-533 -535 -534 0
-21 534 -536 0
21 -534 -536 0
536 -534 -21 0
21 534 536 0
-536 0
537 538 0
539 538 0
-537 -539 -538 0
-535 538 -540 0
535 -538 -540 0
540 -538 -535 0
535 538 540 0
-540 0
541 542 0
543 542 0
-541 -543 -542 0
-539 542 -544 0
539 -542 -544 0
544 -542 -539 0
539 542 544 0
-544 0
545 546 0
547 546 0
-545 -547 -546 0
-543 546 -548 0
543 -546 -548 0
548 -546 -543 0
543 546 548 0
-548 0
549 550 0
551 550 0
-549 -551 -550 0
-547 550 -552 0
547 -550 -552 0
552 -550 -547 0
547 550 552 0
-552 0
553 554 0
555 554 0
-553 -555 -554 0
-551 554 -556 0
551 -554 -556 0
556 -554 -551 0
551 554 556 0
-556 0
549 557 0
553 557 0
558 557 0
-549 -553 -558 -557 0
-555 557 -559 0
555 -557 -559 0
559 -557 -555 0
555 557 559 0
-559 0
560 561 0
562 561 0
-560 -562 -561 0
-22 561 -563 0
22 -561 -563 0
563 -561 -22 0
22 561 563 0
-563 0
564 565 0
566 565 0
-564 -566 -565 0
-562 565 -567 0
562 -565 -567 0
567 -565 -562 0
562 565 567 0
-567 0
568 569 0
570 569 0
-568 -570 -569 0
-566 569 -571 0
566 -569 -571 0
571 -569 -566 0
566 569 571 0
-571 0
572 573 0
574 573 0
-572 -574 -573 0
-570 573 -575 0
570 -573 -575 0
575 -573 -570 0
570 573 575 0
-575 0
576 577 0
578 577 0
-576 -578 -577 0
-574 577 -579 0
574 -577 -579 0
579 -577 -574 0
574 577 579 0
-579 0
1 580 0
581 580 0
-1 -581 -580 0
-578 580 -582 0
578 -580 -582 0
582 -580 -578 0
578 580 582 0
-582 0
583 584 0
585 584 0
-583 -585 -584 0
-23 584 -586 0
23 -584 -586 0
586 -584 -23 0
23 584 586 0
-586 0
587 588 0
589 588 0
-587 -589 -588 0
-585 588 -590 0
585 -588 -590 0
590 -588 -585 0
585 588 590 0
-590 0
591 592 0
593 592 0
-591 -593 -592 0
-589 592 -594 0
589 -592 -594 0
594 -592 -589 0
589 592 594 0
-594 0
595 596 0
597 596 0
-595 -597 -596 0
-593 596 -598 0
593 -596 -598 0
598 -596 -593 0
593 596 598 0
-598 0
599 600 0
601 600 0
-599 -601 -600 0
-597 600 -602 0
597 -600 -602 0
602 -600 -597 0
597 600 602 0
-602 0
603 604 0
605 604 0
-603 -605 -604 0
-601 604 -606 0
601 -604 -606 0
606 -604 -601 0
601 604 606 0
-606 0
607 608 0
609 608 0
-607 -609 -608 0
-605 608 -610 0
605 -608 -610 0
610 -608 -605 0
605 608 610 0
-610 0
599 611 0
603 611 0
607 611 0
612 611 0
-613 0
-609 611 -614 0
609 -611 -614 0
614 -611 -609 0
609 611 614 0
-614 0
615 616 0
617 616 0
-615 -617 -616 0
-24 616 -618 0
24 -616 -618 0
618 -616 -24 0
24 616 618 0
-618 0
619 620 0
621 620 0
-619 -621 -620 0
-617 620 -622 0
617 -620 -622 0
622 -620 -617 0
617 620 622 0
-622 0
623 624 0
625 624 0
-623 -625 -624 0
-621 624 -626 0
621 -624 -626 0
626 -624 -621 0
621 624 626 0
-626 0
627 628 0
629 628 0
-627 -629 -628 0
-625 628 -630 0
625 -628 -630 0
630 -628 -625 0
625 628 630 0
-630 0
631 632 0
633 632 0
-631 -633 -632 0
-629 632 -634 0
629 -632 -634 0
634 -632 -629 0
629 632 634 0
-634 0
489 635 0
636 635 0
-489 -636 -635 0
-633 635 -637 0
633 -635 -637 0
637 -635 -633 0
633 635 637 0
-637 0
638 639 0
640 639 0
-638 -640 -639 0
-25 639 -641 0
25 -639 -641 0
641 -639 -25 0
25 639 641 0
-641 0
642 643 0
644 643 0
-642 -644 -643 0
-640 643 -645 0
640 -643 -645 0
645 -643 -640 0
640 643 645 0
-645 0
646 647 0
648 647 0
-646 -648 -647 0
-644 647 -649 0
644 -647 -649 0
649 -647 -644 0
644 647 649 0
-649 0
650 651 0
652 651 0
-650 -652 -651 0
-648 651 -653 0
648 -651 -653 0
653 -651 -648 0
648 651 653 0
-653 0
90 654 0
655 654 0
-90 -655 -654 0
-652 654 -656 0
652 -654 -656 0
656 -654 -652 0
652 654 656 0
-656 0
657 658 0
659 658 0
-657 -659 -658 0
-26 658 -660 0
26 -658 -660 0
660 -658 -26 0
26 658 660 0
-660 0
661 662 0
663 662 0
-661 -663 -662 0
-659 662 -664 0
659 -662 -664 0
664 -662 -659 0
659 662 664 0
-664 0
82 665 0
666 665 0
-82 -666 -665 0
-663 665 -667 0
663 -665 -667 0
667 -665 -663 0
663 665 667 0
-667 0
-27 668 -669 0
27 -668 -669 0
-27 -668 669 0
27 668 669 0
-669 0
-28 670 -671 0
28 -670 -671 0
-28 -670 671 0
28 670 671 0
-671 0
-32 672 -673 0
32 -672 -673 0
-32 -672 673 0
32 672 673 0
-673 0
-36 674 -675 0
36 -674 -675 0
-36 -674 675 0
36 674 675 0
-675 0
-40 676 -677 0
40 -676 -677 0
-40 -676 677 0
40 676 677 0
-677 0
-44 678 -679 0
44 -678 -679 0
-44 -678 679 0
44 678 679 0
-679 0
-48 680 -681 0
48 -680 -681 0
-48 -680 681 0
48 680 681 0
-681 0
-53 682 -683 0
53 -682 -683 0
-53 -682 683 0
53 682 683 0
-683 0
-56 684 -685 0
56 -684 -685 0
-56 -684 685 0
56 684 685 0
-685 0
-60 686 -687 0
60 -686 -687 0
-60 -686 687 0
60 686 687 0
-687 0
-64 688 -689 0
64 -688 -689 0
-64 -688 689 0
64 688 689 0
-689 0
-68 690 -691 0
68 -690 -691 0
-68 -690 691 0
68 690 691 0
-691 0
-72 692 -693 0
72 -692 -693 0
-72 -692 693 0
72 692 693 0
-693 0
-76 694 -695 0
76 -694 -695 0
-76 -694 695 0
76 694 695 0
-695 0
-80 696 -697 0
80 -696 -697 0
-80 -696 697 0
80 696 697 0
-697 0
-84 698 -699 0
84 -698 -699 0
-84 -698 699 0
84 698 699 0
-699 0
-88 700 -701 0
88 -700 -701 0
-88 -700 701 0
88 700 701 0
-701 0
-92 702 -703 0
92 -702 -703 0
-92 -702 703 0
92 702 703 0
-703 0
-96 704 -705 0
96 -704 -705 0
-96 -704 705 0
96 704 705 0
-705 0
-101 706 -707 0
101 -706 -707 0
-101 -706 707 0
101 706 707 0
-707 0
-104 708 -709 0
104 -708 -709 0
-104 -708 709 0
104 708 709 0
-709 0
-108 710 -711 0
108 -710 -711 0
-108 -710 711 0
108 710 711 0
-711 0
-112 712 -713 0
112 -712 -713 0
-112 -712 713 0
112 712 713 0
-713 0
-116 714 -715 0
116 -714 -715 0
-116 -714 715 0
116 714 715 0
-715 0
-120 716 -717 0
120 -716 -717 0
-120 -716 717 0
120 716 717 0
-717 0
-124 718 -719 0
124 -718 -719 0
-124 -718 719 0
124 718 719 0
-719 0
-128 720 -721 0
128 -720 -721 0
-128 -720 721 0
128 720 721 0
-721 0
-132 722 -723 0
132 -722 -723 0
-132 -722 723 0
132 722 723 0
-723 0
-137 724 -725 0
137 -724 -725 0
-137 -724 725 0
137 724 725 0
-725 0
-139 726 -727 0
139 -726 -727 0
-139 -726 727 0
139 726 727 0
-727 0
-144 728 -729 0
144 -728 -729 0
-144 -728 729 0
144 728 729 0
-729 0
-148 730 -731 0
148 -730 -731 0
-148 -730 731 0
148 730 731 0
-731 0
-150 732 -733 0
150 -732 -733 0
-150 -732 733 0
150 732 733 0
-733 0
-154 734 -735 0
154 -734 -735 0
-154 -734 735 0
154 734 735 0
-735 0
-158 736 -737 0
158 -736 -737 0
-158 -736 737 0
158 736 737 0
-737 0
-163 738 -739 0
163 -738 -739 0
-163 -738 739 0
163 738 739 0
-739 0
-165 740 -741 0
165 -740 -741 0
-165 -740 741 0
165 740 741 0
-741 0
-169 742 -743 0
169 -742 -743 0
-169 -742 743 0
169 742 743 0
-743 0
-173 744 -745 0
173 -744 -745 0
-173 -744 745 0
173 744 745 0
-745 0
-177 746 -747 0
177 -746 -747 0
-177 -746 747 0
177 746 747 0
-747 0
-181 748 -749 0
181 -748 -749 0
-181 -748 749 0
181 748 749 0
-749 0
-186 750 -751 0
186 -750 -751 0
-186 -750 751 0
186 750 751 0
-751 0
-189 752 -753 0
189 -752 -753 0
-189 -752 753 0
189 752 753 0
-753 0
-193 754 -755 0
193 -754 -755 0
-193 -754 755 0
193 754 755 0
-755 0
-197 756 -757 0
197 -756 -757 0
-197 -756 757 0
197 756 757 0
-757 0
-201 758 -759 0
201 -758 -759 0
-201 -758 759 0
201 758 759 0
-759 0
-205 760 -761 0
205 -760 -761 0
-205 -760 761 0
205 760 761 0
-761 0
-209 762 -763 0
209 -762 -763 0
-209 -762 763 0
209 762 763 0
-763 0
-214 764 -765 0
214 -764 -765 0
-214 -764 765 0
214 764 765 0
-765 0
-217 766 -767 0
217 -766 -767 0
-217 -766 767 0
217 766 767 0
-767 0
-221 768 -769 0
221 -768 -769 0
-221 -768 769 0
221 768 769 0
-769 0
-226 770 -771 0
226 -770 -771 0
-226 -770 771 0
226 770 771 0
-771 0
-228 772 -773 0
228 -772 -773 0
-228 -772 773 0
228 772 773 0
-773 0
-232 774 -775 0
232 -774 -775 0
-232 -774 775 0
232 774 775 0
-775 0
-236 776 -777 0
236 -776 -777 0
-236 -776 777 0
236 776 777 0
-777 0
-240 778 -779 0
240 -778 -779 0
-240 -778 779 0
240 778 779 0
-779 0
-245 780 -781 0
245 -780 -781 0
-245 -780 781 0
245 780 781 0
-781 0
-247 782 -783 0
247 -782 -783 0
-247 -782 783 0
247 782 783 0
-783 0
-251 784 -785 0
251 -784 -785 0
-251 -784 785 0
251 784 785 0
-785 0
-255 786 -787 0
255 -786 -787 0
-255 -786 787 0
255 786 787 0
-787 0
-259 788 -789 0
259 -788 -789 0
-259 -788 789 0
259 788 789 0
-789 0
-263 790 -791 0
263 -790 -791 0
-263 -790 791 0
263 790 791 0
-791 0
-267 792 -793 0
267 -792 -793 0
-267 -792 793 0
267 792 793 0
-793 0
-271 794 -795 0
271 -794 -795 0
-271 -794 795 0
271 794 795 0
-795 0
-275 796 -797 0
275 -796 -797 0
-275 -796 797 0
275 796 797 0
-797 0
-279 798 -799 0
279 -798 -799 0
-279 -798 799 0
279 798 799 0
-799 0
-283 800 -801 0
283 -800 -801 0
-283 -800 801 0
283 800 801 0
-801 0
-288 802 -803 0
288 -802 -803 0
-288 -802 803 0
288 802 803 0
-803 0
-291 804 -805 0
291 -804 -805 0
-291 -804 805 0
291 804 805 0
-805 0
-295 806 -807 0
295 -806 -807 0
-295 -806 807 0
295 806 807 0
-807 0
-299 808 -809 0
299 -808 -809 0
-299 -808 809 0
299 808 809 0
-809 0
-303 810 -811 0
303 -810 -811 0
-303 -810 811 0
303 810 811 0
-811 0
-307 812 -813 0
307 -812 -813 0
-307 -812 813 0
307 812 813 0
-813 0
-311 814 -815 0
311 -814 -815 0
-311 -814 815 0
311 814 815 0
-815 0
-315 816 -817 0
315 -816 -817 0
-315 -816 817 0
315 816 817 0
-817 0
-319 818 -819 0
319 -818 -819 0
-319 -818 819 0
319 818 819 0
-819 0
-323 820 -821 0
323 -820 -821 0
-323 -820 821 0
323 820 821 0
-821 0
-327 822 -823 0
327 -822 -823 0
-327 -822 823 0
327 822 823 0
-823 0
-331 824 -825 0
331 -824 -825 0
-331 -824 825 0
331 824 825 0
-825 0
-336 826 -827 0
336 -826 -827 0
-336 -826 827 0
336 826 827 0
-827 0
-339 828 -829 0
339 -828 -829 0
-339 -828 829 0
339 828 829 0
-829 0
-343 830 -831 0
343 -830 -831 0
-343 -830 831 0
343 830 831 0
-831 0
-347 832 -833 0
347 -832 -833 0
-347 -832 833 0
347 832 833 0
-833 0
-351 834 -835 0
351 -834 -835 0
-351 -834 835 0
351 834 835 0
-835 0
-355 836 -837 0
355 -836 -837 0
-355 -836 837 0
355 836 837 0
-837 0
-359 838 -839 0
359 -838 -839 0
-359 -838 839 0
359 838 839 0
-839 0
-363 840 -841 0
363 -840 -841 0
-363 -840 841 0
363 840 841 0
-841 0
-367 842 -843 0
367 -842 -843 0
-367 -842 843 0
367 842 843 0
-843 0
-371 844 -845 0
371 -844 -845 0
-371 -844 845 0
371 844 845 0
-845 0
-376 846 -847 0
376 -846 -847 0
-376 -846 847 0
376 846 847 0
-847 0
-378 848 -849 0
378 -848 -849 0
-378 -848 849 0
378 848 849 0
-849 0
-379 850 -851 0
379 -850 -851 0
-379 -850 851 0
379 850 851 0
-851 0
-383 852 -853 0
383 -852 -853 0
-383 -852 853 0
383 852 853 0
-853 0
-387 854 -855 0
387 -854 -855 0
-387 -854 855 0
387 854 855 0
-855 0
-391 856 -857 0
391 -856 -857 0
-391 -856 857 0
391 856 857 0
-857 0
-395 858 -859 0
395 -858 -859 0
-395 -858 859 0
395 858 859 0
-859 0
-399 860 -861 0
399 -860 -861 0
-399 -860 861 0
399 860 861 0
-861 0
-403 862 -863 0
403 -862 -863 0
-403 -862 863 0
403 862 863 0
-863 0
-407 864 -865 0
407 -864 -865 0
-407 -864 865 0
407 864 865 0
-865 0
-411 866 -867 0
411 -866 -867 0
-411 -866 867 0
411 866 867 0
-867 0
-415 868 -869 0
415 -868 -869 0
-415 -868 869 0
415 868 869 0
-869 0
-420 870 -871 0
420 -870 -871 0
-420 -870 871 0
420 870 871 0
-871 0
-423 872 -873 0
423 -872 -873 0
-423 -872 873 0
423 872 873 0
-873 0
-427 874 -875 0
427 -874 -875 0
-427 -874 875 0
427 874 875 0
-875 0
-431 876 -877 0
431 -876 -877 0
-431 -876 877 0
431 876 877 0
-877 0
-435 878 -879 0
435 -878 -879 0
-435 -878 879 0
435 878 879 0
-879 0
-439 880 -881 0
439 -880 -881 0
-439 -880 881 0
439 880 881 0
-881 0
-443 882 -883 0
443 -882 -883 0
-443 -882 883 0
443 882 883 0
-883 0
-447 884 -885 0
447 -884 -885 0
-447 -884 885 0
447 884 885 0
-885 0
-451 886 -887 0
451 -886 -887 0
-451 -886 887 0
451 886 887 0
-887 0
-455 888 -889 0
455 -888 -889 0
-455 -888 889 0
455 888 889 0
-889 0
-460 890 -891 0
460 -890 -891 0
-460 -890 891 0
460 890 891 0
-891 0
-463 892 -893 0
463 -892 -893 0
-463 -892 893 0
463 892 893 0
-893 0
-467 894 -895 0
467 -894 -895 0
-467 -894 895 0
467 894 895 0
-895 0
-471 896 -897 0
471 -896 -897 0
-471 -896 897 0
471 896 897 0
-897 0
-475 898 -899 0
475 -898 -899 0
-475 -898 899 0
475 898 899 0
-899 0
-479 900 -901 0
479 -900 -901 0
-479 -900 901 0
479 900 901 0
-901 0
-483 902 -903 0
483 -902 -903 0
-483 -902 903 0
483 902 903 0
-903 0
-487 904 -905 0
487 -904 -905 0
-487 -904 905 0
487 904 905 0
-905 0
-491 906 -907 0
491 -906 -907 0
-491 -906 907 0
491 906 907 0
-907 0
-496 908 -909 0
496 -908 -909 0
-496 -908 909 0
496 908 909 0
-909 0
-499 910 -911 0
499 -910 -911 0
-499 -910 911 0
499 910 911 0
-911 0
-503 912 -913 0
503 -912 -913 0
-503 -912 913 0
503 912 913 0
-913 0
-507 914 -915 0
507 -914 -915 0
-507 -914 915 0
507 914 915 0
-915 0
-511 916 -917 0
511 -916 -917 0
-511 -916 917 0
511 916 917 0
-917 0
-516 918 -919 0
516 -918 -919 0
-516 -918 919 0
516 918 919 0
-919 0
-518 920 -921 0
518 -920 -921 0
-518 -920 921 0
518 920 921 0
-921 0
-522 922 -923 0
522 -922 -923 0
-522 -922 923 0
522 922 923 0
-923 0
-526 924 -925 0
526 -924 -925 0
-526 -924 925 0
526 924 925 0
-925 0
-531 926 -927 0
531 -926 -927 0
-531 -926 927 0
531 926 927 0
-927 0
-533 928 -929 0
533 -928 -929 0
-533 -928 929 0
533 928 929 0
-929 0
-537 930 -931 0
537 -930 -931 0
-537 -930 931 0
537 930 931 0
-931 0
-541 932 -933 0
541 -932 -933 0
-541 -932 933 0
541 932 933 0
-933 0
-545 934 -935 0
545 -934 -935 0
-545 -934 935 0
545 934 935 0
-935 0
-549 936 -937 0
549 -936 -937 0
-549 -936 937 0
549 936 937 0
-937 0
-553 938 -939 0
553 -938 -939 0
-553 -938 939 0
553 938 939 0
-939 0
-558 940 -941 0
558 -940 -941 0
-558 -940 941 0
558 940 941 0
-941 0
-560 942 -943 0
560 -942 -943 0
-560 -942 943 0
560 942 943 0
-943 0
-564 944 -945 0
564 -944 -945 0
-564 -944 945 0
564 944 945 0
-945 0
-568 946 -947 0
568 -946 -947 0
-568 -946 947 0
568 946 947 0
-947 0
-572 948 -949 0
572 -948 -949 0
-572 -948 949 0
572 948 949 0
-949 0
-576 950 -951 0
576 -950 -951 0
-576 -950 951 0
576 950 951 0
-951 0
-581 952 -953 0
581 -952 -953 0
-581 -952 953 0
581 952 953 0
-953 0
-583 954 -955 0
583 -954 -955 0
-583 -954 955 0
583 954 955 0
-955 0
-587 956 -957 0
587 -956 -957 0
-587 -956 957 0
587 956 957 0
-957 0
-591 958 -959 0
591 -958 -959 0
-591 -958 959 0
591 958 959 0
-959 0
-595 960 -961 0
595 -960 -961 0
-595 -960 961 0
595 960 961 0
-961 0
-599 962 -963 0
599 -962 -963 0
-599 -962 963 0
599 962 963 0
-963 0
-603 964 -965 0
603 -964 -965 0
-603 -964 965 0
603 964 965 0
-965 0
-607 966 -967 0
607 -966 -967 0
-607 -966 967 0
607 966 967 0
-967 0
-612 968 -969 0
612 -968 -969 0
-612 -968 969 0
612 968 969 0
-969 0
-615 970 -971 0
615 -970 -971 0
-615 -970 971 0
615 970 971 0
-971 0
-619 972 -973 0
619 -972 -973 0
-619 -972 973 0
619 972 973 0
-973 0
-623 974 -975 0
623 -974 -975 0
-623 -974 975 0
623 974 975 0
-975 0
-627 976 -977 0
627 -976 -977 0
-627 -976 977 0
627 976 977 0
-977 0
-631 978 -979 0
631 -978 -979 0
-631 -978 979 0
631 978 979 0
-979 0
-636 980 -981 0
636 -980 -981 0
-636 -980 981 0
636 980 981 0
-981 0
-638 982 -983 0
638 -982 -983 0
-638 -982 983 0
638 982 983 0
-983 0
-642 984 -985 0
642 -984 -985 0
-642 -984 985 0
642 984 985 0
-985 0
-646 986 -987 0
646 -986 -987 0
-646 -986 987 0
646 986 987 0
-987 0
-650 988 -989 0
650 -988 -989 0
-650 -988 989 0
650 988 989 0
-989 0
-655 990 -991 0
655 -990 -991 0
-655 -990 991 0
655 990 991 0
-991 0
-657 992 -993 0
657 -992 -993 0
-657 -992 993 0
657 992 993 0
-993 0
-661 994 -995 0
661 -994 -995 0
-661 -994 995 0
661 994 995 0
-995 0
-666 996 -997 0
666 -996 -997 0
-666 -996 997 0
666 996 997 0
-997 0
-998 -668 0
670 -998 0
672 -998 0
-998 -674 0
-998 -676 0
-998 -678 0
680 -998 0
-998 -682 0
-998 -684 0
-998 -686 0
688 -998 0
690 -998 0
-998 -692 0
694 -998 0
696 -998 0
-998 -698 0
700 -998 0
702 -998 0
-998 -704 0
-998 -706 0
-998 -708 0
-998 -710 0
712 -998 0
-998 -714 0
-998 -716 0
718 -998 0
720 -998 0
-998 -722 0
724 -998 0
-998 -726 0
-998 -728 0
730 -998 0
-998 -732 0
-998 -734 0
736 -998 0
738 -998 0
740 -998 0
742 -998 0
744 -998 0
746 -998 0
748 -998 0
-998 -750 0
752 -998 0
-998 -754 0
756 -998 0
-998 -758 0
760 -998 0
762 -998 0
-998 -764 0
766 -998 0
768 -998 0
770 -998 0
772 -998 0
774 -998 0
776 -998 0
778 -998 0
-998 -780 0
782 -998 0
784 -998 0
786 -998 0
788 -998 0
-998 -790 0
-998 -792 0
794 -998 0
-998 -796 0
798 -998 0
800 -998 0
802 -998 0
804 -998 0
806 -998 0
-998 -808 0
-998 -810 0
-998 -812 0
814 -998 0
-998 -816 0
818 -998 0
-998 -820 0
822 -998 0
-998 -824 0
-998 -826 0
-998 -828 0
830 -998 0
-998 -832 0
834 -998 0
836 -998 0
-998 -838 0
840 -998 0
-998 -842 0
844 -998 0
-998 -846 0
848 -998 0
-998 -850 0
-998 -852 0
854 -998 0
-998 -856 0
-998 -858 0
860 -998 0
-998 -862 0
-998 -864 0
866 -998 0
868 -998 0
870 -998 0
-998 -872 0
-998 -874 0
-998 -876 0
-998 -878 0
880 -998 0
882 -998 0
884 -998 0
886 -998 0
-998 -888 0
-998 -890 0
892 -998 0
-998 -894 0
-998 -896 0
898 -998 0
-998 -900 0
902 -998 0
904 -998 0
-998 -906 0
908 -998 0
-998 -910 0
-998 -912 0
914 -998 0
-998 -916 0
-998 -918 0
920 -998 0
922 -998 0
-998 -924 0
926 -998 0
928 -998 0
-998 -930 0
932 -998 0
-998 -934 0
-998 -936 0
-998 -938 0
940 -998 0
-998 -942 0
-998 -944 0
-998 -946 0
-998 -948 0
950 -998 0
952 -998 0
-998 -954 0
-998 -956 0
-998 -958 0
960 -998 0
962 -998 0
-998 -964 0
-998 -966 0
-998 -968 0
970 -998 0
-998 -972 0
974 -998 0
976 -998 0
-998 -978 0
-998 -980 0
-998 -982 0
-998 -984 0
986 -998 0
-998 -988 0
-998 -990 0
992 -998 0
994 -998 0
-998 -996 0
998 0
-999 0
-1000 0
-1001 0
-1002 0
-1003 0
-1004 0
-1005 0
-1006 0
